cost: 702.45
Route 1:           0    6   42   37   20    0
Route 2:           0    7   41   12   34   16    5   25   45   29   49   35   50    2    0
Route 3:           0   10    4   48   43   32   31   11   30   17   14    1   28   33   24   15    0
Route 4:           0   22   13    9   26   38   19   47   23   44   40   39    8    3   46   27   36   21   18    0
